(set-info :smt-lib-version 2.6)
(set-logic UF)
(set-info :source |Benchmarks from the paper: "Extending Sledgehammer with SMT Solvers" by Jasmin Blanchette, Sascha Bohme, and Lawrence C. Paulson, CADE 2011.  Translated to SMT2 by Andrew Reynolds and Morgan Deters.|)
(set-info :category "industrial")
(set-info :status sat)
(declare-sort S1 0)
(declare-sort S2 0)
(declare-sort S3 0)
(declare-sort S4 0)
(declare-sort S5 0)
(declare-sort S6 0)
(declare-sort S7 0)
(declare-sort S8 0)
(declare-sort S9 0)
(declare-sort S10 0)
(declare-sort S11 0)
(declare-sort S12 0)
(declare-sort S13 0)
(declare-sort S14 0)
(declare-sort S15 0)
(declare-sort S16 0)
(declare-sort S17 0)
(declare-sort S18 0)
(declare-sort S19 0)
(declare-sort S20 0)
(declare-sort S21 0)
(declare-sort S22 0)
(declare-sort S23 0)
(declare-sort S24 0)
(declare-sort S25 0)
(declare-sort S26 0)
(declare-sort S27 0)
(declare-sort S28 0)
(declare-sort S29 0)
(declare-fun f1 () S1)
(declare-fun f2 () S1)
(declare-fun f3 (S4 S3) S1)
(declare-fun f4 (S5 S2) S4)
(declare-fun f5 (S6 S2) S5)
(declare-fun f6 () S6)
(declare-fun f7 () S5)
(declare-fun f8 (S7 S8) S1)
(declare-fun f9 (S2 S3) S7)
(declare-fun f10 () S2)
(declare-fun f11 () S3)
(declare-fun f12 (S9) S8)
(declare-fun f13 (S10) S9)
(declare-fun f14 (S11 S10) S10)
(declare-fun f15 (S12 S13) S11)
(declare-fun f16 () S12)
(declare-fun f17 (S14 S3) S13)
(declare-fun f18 (S15 S2) S14)
(declare-fun f19 (S16 S2) S15)
(declare-fun f20 () S16)
(declare-fun f21 (S17 S3) S2)
(declare-fun f22 () S17)
(declare-fun f23 (S18 S10) S3)
(declare-fun f24 (S19 S20) S18)
(declare-fun f25 () S19)
(declare-fun f26 () S20)
(declare-fun f27 () S10)
(declare-fun f28 () S2)
(declare-fun f29 (S21 S3) S3)
(declare-fun f30 (S22 S2) S21)
(declare-fun f31 () S22)
(declare-fun f32 () S2)
(declare-fun f33 () S3)
(declare-fun f34 (S23 S24) S11)
(declare-fun f35 () S23)
(declare-fun f36 (S25 S2) S24)
(declare-fun f37 () S25)
(declare-fun f38 (S2 S2) S1)
(declare-fun f39 () S2)
(declare-fun f40 (S2 S2) S1)
(declare-fun f41 (S26 S2) S2)
(declare-fun f42 (S27 S2) S26)
(declare-fun f43 () S27)
(declare-fun f44 () S20)
(declare-fun f45 (S28 S29) S11)
(declare-fun f46 () S28)
(declare-fun f47 (S5 S6 S6) S29)
(declare-fun f48 (S13 S29) S1)
(declare-fun f49 () S2)
(declare-fun f50 () S2)
(declare-fun f51 () S2)
(declare-fun f52 () S3)
(declare-fun f53 (S10) S29)
(declare-fun f54 () S13)
(declare-fun f55 () S3)
(declare-fun f56 (S20 S13) S2)
(declare-fun f57 () S9)
(declare-fun f58 () S27)
(declare-fun f59 (S24 S13) S13)
(declare-fun f60 () S11)
(assert (not (= f1 f2)))
(assert (forall ((?v0 S2) (?v1 S2) (?v2 S3)) (= (= (f3 (f4 (f5 f6 ?v0) ?v1) ?v2) f1) true)))
(assert (forall ((?v0 S2) (?v1 S3)) (= (= (f3 (f4 f7 ?v0) ?v1) f1) false)))
(assert (not false))
(assert (let ((?v_0 (f21 f22 (f23 (f24 f25 f26) f27)))) (= (f8 (f9 f10 f11) (f12 (f13 (f14 (f15 f16 (f17 (f18 (f19 f20 ?v_0) f28) (f29 (f30 f31 f32) f33))) (f14 (f34 f35 (f36 f37 ?v_0)) f27))))) f1)))
(assert (= (f38 f28 f39) f1))
(assert (let ((?v_0 (f21 f22 (f23 (f24 f25 f26) f27)))) (= (f40 f39 (f41 (f42 f43 ?v_0) (f21 f22 (f23 (f24 f25 f44) (f14 (f45 f46 (f47 f7 f6 f6)) (f14 (f34 f35 (f36 f37 ?v_0)) f27)))))) f1)))
(assert (= (f48 (f17 (f18 (f19 f20 f49) f50) (f29 (f30 f31 f51) f52)) (f53 f27)) f1))
(assert (= f54 (f17 (f18 (f19 f20 f49) f50) (f29 (f30 f31 f51) f52))))
(assert (= f55 (f29 (f30 f31 f51) f52)))
(assert (forall ((?v0 S13)) (=> (= (f48 ?v0 (f53 f27)) f1) (and (not (= (f56 f26 ?v0) f28)) (not (= (f56 f44 ?v0) f28))))))
(assert (let ((?v_0 (f21 f22 (f23 (f24 f25 f26) f27)))) (not (= (f13 (f14 (f15 f16 (f17 (f18 (f19 f20 ?v_0) f28) (f29 (f30 f31 f32) f33))) (f14 (f34 f35 (f36 f37 ?v_0)) f27))) f57))))
(assert (not (= f51 f28)))
(assert (or (= (f41 (f42 f58 (f21 f22 (f23 (f24 f25 f26) f27))) f51) f28) (= f49 f28)))
(assert (forall ((?v0 S2) (?v1 S2)) (=> (= (f40 f28 ?v0) f1) (=> (= (f40 f32 ?v1) f1) (= (f40 (f41 (f42 f58 ?v0) ?v1) ?v0) f1)))))
(assert (forall ((?v0 S2) (?v1 S2)) (= (= (f41 (f42 f58 ?v0) ?v1) f28) (or (= ?v1 f28) (or (and (= (f38 f28 ?v0) f1) (= (f40 ?v0 ?v1) f1)) (and (= (f38 ?v0 f28) f1) (= (f40 ?v1 ?v0) f1)))))))
(assert (forall ((?v0 S2) (?v1 S2)) (=> (= (f40 f28 ?v0) f1) (= (= (f38 f28 (f41 (f42 f58 ?v1) ?v0)) f1) (= (f38 f28 ?v1) f1)))))
(assert (forall ((?v0 S2) (?v1 S2)) (=> (= (f40 f28 ?v0) f1) (= (= (f40 f28 (f41 (f42 f58 ?v1) ?v0)) f1) (= (f38 ?v0 ?v1) f1)))))
(assert (forall ((?v0 S2) (?v1 S2)) (=> (= (f38 f28 ?v0) f1) (= (= (f40 f28 (f41 (f42 f58 ?v0) ?v1)) f1) (and (= (f38 ?v1 ?v0) f1) (= (f40 f28 ?v1) f1))))))
(assert (forall ((?v0 S2) (?v1 S2) (?v2 S2)) (let ((?v_0 (f42 f58 ?v0))) (=> (= (f38 f28 ?v0) f1) (=> (= (f40 f28 ?v1) f1) (=> (= (f38 ?v1 ?v2) f1) (= (f38 (f41 ?v_0 ?v2) (f41 ?v_0 ?v1)) f1)))))))
(assert (forall ((?v0 S2) (?v1 S2)) (=> (= (f38 f28 ?v0) f1) (=> (= (f40 ?v1 f28) f1) (= (f38 (f41 (f42 f58 ?v0) ?v1) f28) f1)))))
(assert (forall ((?v0 S2) (?v1 S2)) (=> (= (f38 f28 ?v0) f1) (=> (= (f40 ?v0 ?v1) f1) (= (f41 (f42 f58 ?v0) ?v1) f28)))))
(assert (forall ((?v0 S2) (?v1 S2)) (=> (= (f40 ?v0 f28) f1) (= (= (f38 f28 (f41 (f42 f58 ?v1) ?v0)) f1) (= (f38 ?v1 f28) f1)))))
(assert (forall ((?v0 S2) (?v1 S2)) (=> (= (f38 ?v0 f28) f1) (=> (= (f40 f28 ?v1) f1) (= (f38 (f41 (f42 f58 ?v0) ?v1) f28) f1)))))
(assert (forall ((?v0 S2) (?v1 S2) (?v2 S2)) (let ((?v_0 (f42 f58 ?v0))) (=> (= (f40 ?v0 f28) f1) (=> (= (f40 f28 ?v1) f1) (=> (= (f38 ?v1 ?v2) f1) (= (f38 (f41 ?v_0 ?v1) (f41 ?v_0 ?v2)) f1)))))))
(assert (forall ((?v0 S2) (?v1 S2)) (=> (= (f38 ?v0 f28) f1) (=> (= (f40 ?v1 ?v0) f1) (= (f41 (f42 f58 ?v0) ?v1) f28)))))
(assert (forall ((?v0 S2)) (= (f41 (f42 f58 ?v0) f28) f28)))
(assert (forall ((?v0 S2)) (= (f41 (f42 f58 f28) ?v0) f28)))
(assert (forall ((?v0 S2)) (= (f41 (f42 f58 ?v0) f32) ?v0)))
(assert (forall ((?v0 S2)) (= (f41 (f42 f58 f28) ?v0) f28)))
(assert (forall ((?v0 S2)) (=> (not (= ?v0 f28)) (= (f41 (f42 f58 ?v0) ?v0) f32))))
(assert (forall ((?v0 S2) (?v1 S2)) (=> (= (f38 f28 ?v0) f1) (=> (= (f38 f28 ?v1) f1) (= (f38 f28 (f41 (f42 f58 ?v0) ?v1)) f1)))))
(assert (forall ((?v0 S2) (?v1 S2)) (=> (= (f40 ?v0 f28) f1) (=> (= (f40 f28 ?v1) f1) (= (f40 (f41 (f42 f58 ?v0) ?v1) f28) f1)))))
(assert (forall ((?v0 S2) (?v1 S2)) (=> (= (f40 ?v0 f28) f1) (= (= (f40 (f41 (f42 f58 ?v1) ?v0) f28) f1) (= (f40 f28 ?v1) f1)))))
(assert (forall ((?v0 S2) (?v1 S2)) (=> (= (f40 f28 ?v0) f1) (= (= (f40 (f41 (f42 f58 ?v1) ?v0) f28) f1) (= (f40 ?v1 f28) f1)))))
(assert (forall ((?v0 S2)) (=> (not (= ?v0 f28)) (= (f41 (f42 f58 ?v0) ?v0) f32))))
(assert (forall ((?v0 S2) (?v1 S2) (?v2 S2)) (=> (= (f38 ?v0 ?v1) f1) (=> (= (f40 ?v2 f28) f1) (= (f38 (f41 (f42 f58 ?v1) ?v2) (f41 (f42 f58 ?v0) ?v2)) f1)))))
(assert (forall ((?v0 S2) (?v1 S2) (?v2 S2)) (=> (= (f38 ?v0 ?v1) f1) (=> (= (f40 f28 ?v2) f1) (= (f38 (f41 (f42 f58 ?v0) ?v2) (f41 (f42 f58 ?v1) ?v2)) f1)))))
(assert (forall ((?v0 S2)) (= (= (f38 f32 ?v0) f1) (= (f40 f28 ?v0) f1))))
(assert (forall ((?v0 S2) (?v1 S2) (?v2 S2)) (let ((?v_0 (f17 (f18 (f19 f20 ?v1) ?v2) f33))) (= (f59 (f36 f37 ?v0) ?v_0) ?v_0))))
(assert (forall ((?v0 S2) (?v1 S3)) (= (f21 f22 (f29 (f30 f31 ?v0) ?v1)) (f41 (f42 f43 ?v0) (f21 f22 ?v1)))))
(assert (= (f21 f22 f33) f32))
(assert (forall ((?v0 S10)) (let ((?v_0 (f21 f22 (f23 (f24 f25 f26) ?v0)))) (= (f14 f60 ?v0) (f14 (f15 f16 (f17 (f18 (f19 f20 ?v_0) f28) (f29 (f30 f31 f32) f33))) (f14 (f34 f35 (f36 f37 ?v_0)) ?v0))))))
(assert (forall ((?v0 S2) (?v1 S2)) (=> (not (= ?v0 f28)) (=> (not (= ?v1 f28)) (= (f40 f28 (f41 (f42 f43 ?v0) ?v1)) f1)))))
(assert (forall ((?v0 S2) (?v1 S2)) (=> (= (f38 f28 ?v0) f1) (=> (= (f38 f28 ?v1) f1) (= (f38 f28 (f41 (f42 f43 ?v0) ?v1)) f1)))))
(assert (forall ((?v0 S2) (?v1 S2)) (= (f38 f28 (f41 (f42 f43 ?v0) ?v1)) f1)))
(check-sat)
(exit)
